(set-logic QF_S)
(declare-fun var0 () Int)
(declare-fun var1 () Int)
(declare-fun var2 () String)
(declare-fun var3 () String)
(declare-fun var4 () Int)
(declare-fun var5 () String)
(declare-fun var6 () String)
(declare-fun var7 () Int)
(assert (not (< var0 var1)))
(assert (>= (str.indexof var2 var3 var4) (str.indexof var5 var6 var7)))
(assert (>= (str.indexof var3 var2 var1) (str.len var3)))
(assert (str.prefixof (str.replace var6 var6 var5) (str.substr var5 var4 var7)))
(check-sat)